(set-info :origin "SVCOMP13 benchmarks generated by Arie Gurfinkel")
(set-logic HORN)
(declare-fun cp-rel-entry () Bool)
(declare-fun cp-rel-bb
             (Real
              Real
              Real
              Real
              Real
              Bool
              Bool
              Real
              Real
              Real
              Real
              Real
              Real
              Real
              Real
              Real
              Real
              Real
              Real
              Real
              Real
              Real
              Real
              Real
              Real
              Real
              Real
              Real)
             Bool)
(declare-fun cp-rel-UnifiedReturnBlock () Bool)
(declare-fun cp-rel-bb.i.i
             (Real
              Real
              Real
              Real
              Real
              Bool
              Bool
              Real
              Real
              Real
              Real
              Real
              Real
              Real
              Real
              Real
              Real
              Real
              Real
              Real
              Real
              Real
              Real
              Real
              Real
              Real
              Real
              Real
              Real
              Real)
             Bool)
(declare-fun cp-rel-__UFO__0
             (Real
              Real
              Real
              Real
              Real
              Bool
              Bool
              Real
              Real
              Real
              Real
              Real
              Real
              Real
              Real
              Real
              Real
              Real
              Real
              Real
              Real
              Real
              Real
              Real
              Real
              Real
              Real
              Real)
             Bool)
(assert |cp-rel-entry|)
(assert (forall ((?A Real) (?B Real) (?C Real) (?D Real) (?E Real) (?F Bool) (?G Bool) (?H Real) (?I Real) (?J Real) (?K Real) (?L Real) (?M Real) (?N Real) (?O Real) (?P Real) (?Q Real) (?R Real) (?S Real) (?T Real) (?U Real) (?V Real) (?W Real) (?X Real) (?Y Real) (?Z Real) (?A1 Real) (?B1 Real) (?C1 Bool) (?D1 Real) (?E1 Real) (?F1 Real) (?G1 Real) (?H1 Real) (?I1 Real) (?J1 Real) (?K1 Real) (?L1 Real) (?M1 Real) (?N1 Real) (?O1 Real) (?P1 Real) (?Q1 Real) (?R1 Real) (?S1 Real) (?T1 Real) (?U1 Real) (?V1 Real) )(let (($x237386 (|cp-rel-bb| ?A ?B ?C ?D ?E ?F ?G ?H ?I ?J ?K ?L ?M ?N ?O ?P ?Q ?R ?S ?T ?U ?V ?W ?X ?Y ?Z ?A1 ?B1)))
(let (($x447403 (and |cp-rel-entry| (= ?T1 (+ 248.0 ?O1)) (= ?S1 (+ 247.0 ?O1)) (= ?R1 (+ 185.0 ?O1)) (= ?Q1 (+ 184.0 ?O1)) (= ?P1 (+ 8.0 ?O1)) (= ?N1 (+ 187.0 ?O1)) (= ?M1 (+ 2136.0 ?G1)) (= ?L1 (+ 2176.0 ?G1)) (= ?K1 (+ 2184.0 ?G1)) (= ?J1 ?E1) (= ?I1 (+ 2128.0 ?G1)) (= ?H1 (+ 2112.0 ?G1)) (= ?F1 (+ 308.0 ?G1)) (= ?G (not (<= ?E1 0.0))) (= ?F (= ?D1 0.0)) (= ?C1 true) (= ?U1 (+ 40.0 ?V1)))))
(=> $x447403 $x237386))))
)
(assert (forall ((?A Real) (?B Real) (?C Real) (?D Real) (?E Real) (?F Bool) (?G Bool) (?H Real) (?I Real) (?J Real) (?K Real) (?L Real) (?M Real) (?N Real) (?O Real) (?P Real) (?Q Real) (?R Real) (?S Real) (?T Real) (?U Real) (?V Real) (?W Real) (?X Real) (?Y Real) (?Z Real) (?A1 Real) (?B1 Real) (?C1 Bool) (?D1 Bool) (?E1 Bool) (?F1 Bool) (?G1 Bool) (?H1 Bool) (?I1 Bool) (?J1 Bool) (?K1 Bool) (?L1 Bool) (?M1 Bool) (?N1 Bool) (?O1 Bool) (?P1 Bool) (?Q1 Bool) (?R1 Bool) (?S1 Bool) (?T1 Bool) (?U1 Bool) (?V1 Bool) (?W1 Bool) (?X1 Bool) (?Y1 Bool) (?Z1 Bool) (?A2 Bool) (?B2 Bool) (?C2 Bool) (?D2 Bool) (?E2 Bool) (?F2 Bool) (?G2 Bool) (?H2 Bool) (?I2 Bool) (?J2 Bool) (?K2 Bool) (?L2 Bool) (?M2 Bool) (?N2 Bool) (?O2 Bool) (?P2 Bool) (?Q2 Bool) (?R2 Bool) (?S2 Bool) (?T2 Bool) (?U2 Bool) (?V2 Bool) (?W2 Bool) (?X2 Bool) (?Y2 Bool) (?Z2 Bool) (?A3 Bool) (?B3 Bool) (?C3 Bool) (?D3 Bool) (?E3 Bool) (?F3 Bool) (?G3 Bool) (?H3 Bool) (?I3 Bool) (?J3 Bool) (?K3 Bool) (?L3 Bool) (?M3 Bool) (?N3 Bool) (?O3 Bool) (?P3 Bool) (?Q3 Bool) (?R3 Bool) (?S3 Bool) (?T3 Bool) (?U3 Bool) (?V3 Bool) (?W3 Bool) (?X3 Bool) (?Y3 Bool) (?Z3 Bool) (?A4 Bool) (?B4 Bool) (?C4 Bool) (?D4 Bool) (?E4 Bool) (?F4 Bool) (?G4 Bool) (?H4 Bool) (?I4 Bool) (?J4 Bool) (?K4 Bool) (?L4 Bool) (?M4 Bool) (?N4 Bool) (?O4 Bool) (?P4 Bool) (?Q4 Bool) (?R4 Bool) (?S4 Bool) (?T4 Bool) (?U4 Bool) (?V4 Bool) (?W4 Bool) (?X4 Bool) (?Y4 Bool) (?Z4 Bool) (?A5 Bool) (?B5 Bool) (?C5 Bool) (?D5 Bool) (?E5 Bool) (?F5 Bool) (?G5 Bool) (?H5 Bool) (?I5 Bool) (?J5 Bool) (?K5 Bool) (?L5 Bool) (?M5 Bool) (?N5 Bool) (?O5 Bool) (?P5 Bool) (?Q5 Bool) (?R5 Bool) (?S5 Bool) (?T5 Bool) (?U5 Bool) (?V5 Bool) (?W5 Bool) (?X5 Bool) (?Y5 Bool) (?Z5 Bool) (?A6 Bool) (?B6 Bool) (?C6 Bool) (?D6 Bool) (?E6 Bool) (?F6 Bool) (?G6 Bool) (?H6 Bool) (?I6 Bool) (?J6 Bool) (?K6 Bool) (?L6 Bool) (?M6 Bool) (?N6 Bool) (?O6 Bool) (?P6 Bool) (?Q6 Bool) (?R6 Bool) (?S6 Bool) (?T6 Bool) (?U6 Bool) (?V6 Bool) (?W6 Bool) (?X6 Bool) (?Y6 Bool) (?Z6 Bool) (?A7 Bool) (?B7 Bool) (?C7 Bool) (?D7 Bool) (?E7 Bool) (?F7 Bool) (?G7 Bool) (?H7 Bool) (?I7 Bool) (?J7 Bool) (?K7 Bool) (?L7 Bool) (?M7 Bool) (?N7 Bool) (?O7 Bool) (?P7 Bool) (?Q7 Bool) (?R7 Bool) (?S7 Bool) (?T7 Bool) (?U7 Bool) (?V7 Bool) (?W7 Bool) (?X7 Bool) (?Y7 Bool) (?Z7 Bool) (?A8 Bool) (?B8 Bool) (?C8 Bool) (?D8 Bool) (?E8 Bool) (?F8 Bool) (?G8 Bool) (?H8 Bool) (?I8 Bool) (?J8 Bool) (?K8 Bool) (?L8 Bool) (?M8 Bool) (?N8 Bool) (?O8 Bool) (?P8 Bool) (?Q8 Bool) (?R8 Bool) (?S8 Bool) (?T8 Bool) (?U8 Bool) (?V8 Bool) (?W8 Bool) (?X8 Bool) (?Y8 Bool) (?Z8 Bool) (?A9 Bool) (?B9 Bool) (?C9 Bool) (?D9 Bool) (?E9 Bool) (?F9 Bool) (?G9 Bool) (?H9 Bool) (?I9 Bool) (?J9 Bool) (?K9 Real) (?L9 Real) (?M9 Bool) (?N9 Real) (?O9 Bool) (?P9 Bool) (?Q9 Bool) (?R9 Bool) (?S9 Bool) (?T9 Bool) (?U9 Bool) (?V9 Bool) (?W9 Bool) (?X9 Bool) (?Y9 Bool) (?Z9 Real) (?A10 Real) (?B10 Real) (?C10 Real) (?D10 Bool) (?E10 Real) (?F10 Real) (?G10 Bool) (?H10 Bool) (?I10 Bool) (?J10 Bool) (?K10 Bool) (?L10 Bool) (?M10 Bool) (?N10 Bool) (?O10 Real) (?P10 Real) (?Q10 Bool) (?R10 Real) (?S10 Bool) (?T10 Bool) (?U10 Real) (?V10 Real) (?W10 Real) (?X10 Real) (?Y10 Bool) (?Z10 Bool) (?A11 Bool) (?B11 Bool) (?C11 Bool) (?D11 Bool) (?E11 Bool) (?F11 Bool) (?G11 Bool) (?H11 Bool) (?I11 Bool) (?J11 Bool) (?K11 Bool) (?L11 Bool) (?M11 Bool) (?N11 Bool) (?O11 Bool) (?P11 Bool) (?Q11 Bool) (?R11 Bool) (?S11 Bool) (?T11 Real) (?U11 Real) (?V11 Bool) (?W11 Real) (?X11 Bool) (?Y11 Bool) (?Z11 Real) (?A12 Real) (?B12 Bool) (?C12 Bool) (?D12 Bool) (?E12 Bool) (?F12 Bool) (?G12 Bool) (?H12 Bool) (?I12 Bool) (?J12 Bool) (?K12 Bool) (?L12 Bool) (?M12 Bool) (?N12 Bool) (?O12 Bool) (?P12 Bool) (?Q12 Bool) (?R12 Bool) (?S12 Bool) (?T12 Bool) (?U12 Bool) (?V12 Bool) (?W12 Bool) (?X12 Bool) (?Y12 Bool) (?Z12 Real) (?A13 Real) (?B13 Bool) (?C13 Real) (?D13 Bool) (?E13 Bool) (?F13 Bool) (?G13 Bool) (?H13 Bool) (?I13 Bool) (?J13 Bool) (?K13 Bool) (?L13 Bool) (?M13 Bool) (?N13 Bool) (?O13 Bool) (?P13 Bool) (?Q13 Bool) (?R13 Bool) (?S13 Bool) (?T13 Bool) (?U13 Bool) (?V13 Bool) (?W13 Bool) (?X13 Bool) (?Y13 Bool) (?Z13 Bool) (?A14 Bool) (?B14 Real) (?C14 Real) (?D14 Bool) (?E14 Real) (?F14 Bool) (?G14 Bool) (?H14 Bool) (?I14 Bool) (?J14 Bool) (?K14 Bool) (?L14 Bool) (?M14 Bool) (?N14 Bool) (?O14 Bool) (?P14 Bool) (?Q14 Real) (?R14 Real) (?S14 Bool) (?T14 Real) (?U14 Bool) (?V14 Bool) (?W14 Bool) (?X14 Bool) (?Y14 Bool) (?Z14 Bool) (?A15 Bool) (?B15 Bool) (?C15 Bool) (?D15 Bool) (?E15 Bool) (?F15 Real) (?G15 Real) (?H15 Bool) (?I15 Real) (?J15 Bool) (?K15 Bool) (?L15 Bool) (?M15 Bool) (?N15 Bool) (?O15 Bool) (?P15 Bool) (?Q15 Bool) (?R15 Bool) (?S15 Bool) (?T15 Bool) (?U15 Real) (?V15 Real) (?W15 Bool) (?X15 Real) (?Y15 Bool) (?Z15 Bool) (?A16 Bool) (?B16 Bool) (?C16 Bool) (?D16 Bool) (?E16 Bool) (?F16 Bool) (?G16 Bool) (?H16 Bool) (?I16 Bool) (?J16 Real) (?K16 Real) (?L16 Bool) (?M16 Real) (?N16 Bool) (?O16 Bool) (?P16 Bool) (?Q16 Bool) (?R16 Bool) (?S16 Bool) (?T16 Bool) (?U16 Bool) (?V16 Bool) (?W16 Bool) (?X16 Bool) (?Y16 Real) (?Z16 Real) (?A17 Bool) (?B17 Real) (?C17 Bool) (?D17 Bool) (?E17 Bool) (?F17 Bool) (?G17 Bool) (?H17 Bool) (?I17 Bool) (?J17 Bool) (?K17 Bool) (?L17 Bool) (?M17 Bool) (?N17 Real) (?O17 Real) (?P17 Bool) (?Q17 Real) (?R17 Bool) (?S17 Bool) (?T17 Bool) (?U17 Bool) (?V17 Bool) (?W17 Bool) (?X17 Bool) (?Y17 Bool) (?Z17 Bool) (?A18 Bool) (?B18 Bool) (?C18 Bool) (?D18 Bool) (?E18 Bool) (?F18 Bool) (?G18 Bool) (?H18 Real) (?I18 Real) (?J18 Bool) (?K18 Real) (?L18 Real) (?M18 Real) (?N18 Real) (?O18 Real) (?P18 Real) (?Q18 Real) (?R18 Real) (?S18 Real) (?T18 Real) (?U18 Real) (?V18 Real) (?W18 Real) (?X18 Real) (?Y18 Real) (?Z18 Real) (?A19 Real) (?B19 Real) (?C19 Real) (?D19 Real) (?E19 Real) (?F19 Real) (?G19 Real) (?H19 Real) (?I19 Real) (?J19 Real) (?K19 Real) (?L19 Real) (?M19 Real) (?N19 Real) (?O19 Real) (?P19 Real) (?Q19 Real) (?R19 Real) (?S19 Bool) (?T19 Real) (?U19 Real) (?V19 Real) (?W19 Real) (?X19 Real) (?Y19 Real) (?Z19 Real) (?A20 Real) (?B20 Real) (?C20 Real) (?D20 Real) (?E20 Real) (?F20 Real) (?G20 Real) (?H20 Real) (?I20 Real) (?J20 Real) (?K20 Real) (?L20 Real) (?M20 Real) (?N20 Real) (?O20 Real) (?P20 Real) (?Q20 Real) (?R20 Real) (?S20 Real) (?T20 Real) (?U20 Real) (?V20 Real) (?W20 Real) (?X20 Real) (?Y20 Real) (?Z20 Real) (?A21 Real) (?B21 Real) (?C21 Real) (?D21 Real) (?E21 Real) (?F21 Real) (?G21 Real) (?H21 Real) (?I21 Real) (?J21 Real) (?K21 Real) (?L21 Real) (?M21 Real) (?N21 Real) (?O21 Real) (?P21 Real) (?Q21 Real) (?R21 Bool) (?S21 Real) (?T21 Real) (?U21 Real) (?V21 Real) (?W21 Real) (?X21 Real) (?Y21 Real) (?Z21 Real) (?A22 Real) (?B22 Real) (?C22 Real) (?D22 Real) (?E22 Real) (?F22 Real) (?G22 Real) (?H22 Real) (?I22 Real) (?J22 Real) (?K22 Real) (?L22 Real) (?M22 Real) (?N22 Real) (?O22 Real) (?P22 Real) (?Q22 Real) (?R22 Real) (?S22 Real) (?T22 Real) (?U22 Real) (?V22 Real) (?W22 Real) (?X22 Real) (?Y22 Real) (?Z22 Real) (?A23 Real) (?B23 Real) (?C23 Real) (?D23 Real) (?E23 Real) (?F23 Real) (?G23 Real) (?H23 Real) (?I23 Real) (?J23 Real) (?K23 Real) )(let (($x159958 (|cp-rel-bb| ?A ?B ?C ?D ?E ?F ?G ?H ?I ?J ?K ?L ?M ?N ?O ?P ?Q ?R ?S ?T ?U ?V ?W ?X ?Y ?Z ?A1 ?B1)))
(let (($x309477 (or (not ?P4) (and ?D4 ?Q4) (and ?P3 ?R4 (not ?F4)) (and ?G4 ?S4) (and ?S3 ?T4 (not ?I4)))))
(let (($x279379 (or (not ?P4) (and ?Q4 (not ?R4) (not ?S4) (not ?T4)) (and ?R4 (not ?Q4) (not ?S4) (not ?T4)) (and ?S4 (not ?Q4) (not ?R4) (not ?T4)) (and ?T4 (not ?Q4) (not ?R4) (not ?S4)))))
(let (($x236576 (or (not ?U4) (and ?J4 ?V4) (and ?U3 ?W4 ?L4) (and ?E3 ?X4 (not ?W3)))))
(let (($x347037 (or (not ?U4) (and ?V4 (not ?W4) (not ?X4)) (and ?W4 (not ?V4) (not ?X4)) (and ?X4 (not ?V4) (not ?W4)))))
(let (($x230719 (or (not ?Q5) (and ?H5 ?R5) (and ?Y4 ?S5 ?J5) (and ?H3 ?T5 (not ?Z3)))))
(let (($x387721 (or (not ?Q5) (and ?R5 (not ?S5) (not ?T5)) (and ?S5 (not ?R5) (not ?T5)) (and ?T5 (not ?R5) (not ?S5)))))
(let (($x281806 (or (not ?Z6) (and ?M6 ?A7) (and ?Z5 ?B7 ?O6) (and ?C6 ?C7))))
(let (($x163622 (or (not ?Z6) (and ?A7 (not ?B7) (not ?C7)) (and ?B7 (not ?A7) (not ?C7)) (and ?C7 (not ?A7) (not ?B7)))))
(let (($x220881 (or (not ?D7) (and ?P6 ?E7 ?F7) (and ?S6 ?G7 ?H7) (and ?U6 ?I7 ?J7) (and ?X6 ?K7 ?L7))))
(let (($x205295 (or (not ?D7) (and ?E7 (not ?G7) (not ?I7) (not ?K7)) (and ?G7 (not ?E7) (not ?I7) (not ?K7)) (and ?I7 (not ?E7) (not ?G7) (not ?K7)) (and ?K7 (not ?E7) (not ?G7) (not ?I7)))))
(let (($x205186 (or (not ?V7) (and ?P7 ?W7) (and ?D7 ?X7 (not ?R7)) (and ?P6 ?Y7 (not ?F7)) (and ?S6 ?Z7 (not ?H7)) (and ?U6 ?A8 (not ?J7)) (and ?X6 ?B8 (not ?L7)))))
(let (($x100867 (or (not ?V7) (and ?W7 (not ?X7) (not ?Y7) (not ?Z7) (not ?A8) (not ?B8)) (and ?X7 (not ?W7) (not ?Y7) (not ?Z7) (not ?A8) (not ?B8)) (and ?Y7 (not ?W7) (not ?X7) (not ?Z7) (not ?A8) (not ?B8)) (and ?Z7 (not ?W7) (not ?X7) (not ?Y7) (not ?A8) (not ?B8)) (and ?A8 (not ?W7) (not ?X7) (not ?Y7) (not ?Z7) (not ?B8)) (and ?B8 (not ?W7) (not ?X7) (not ?Y7) (not ?Z7) (not ?A8)))))
(let (($x299393 (or (not ?N8) (and ?F8 ?O8 (not ?P8)) (and ?I8 ?Q8 (not ?R8)))))
(let (($x396311 (or (not ?V8) (and ?N8 ?W8) (and ?F8 ?X8 ?P8) (and ?I8 ?Y8 ?R8))))
(let (($x258935 (or (not ?V8) (and ?W8 (not ?X8) (not ?Y8)) (and ?X8 (not ?W8) (not ?Y8)) (and ?Y8 (not ?W8) (not ?X8)))))
(let (($x167949 (or (not ?I9) (and ?C9 ?J9 (<= ?K9 ?L9) (>= ?K9 ?L9)) (and ?V8 ?M9 ?E9 (<= ?K9 ?N9) (>= ?K9 ?N9)))))
(let (($x265381 (and ?I9 ?D10 ?T9 (<= ?Z9 ?E10) (>= ?Z9 ?E10) (<= ?B10 ?F10) (>= ?B10 ?F10))))
(let (($x160013 (and ?R9 ?Y9 (<= ?Z9 ?A10) (>= ?Z9 ?A10) (<= ?B10 ?C10) (>= ?B10 ?C10))))
(let (($x318894 (or (not ?M10) (and ?G10 ?N10 (<= ?O10 ?P10) (>= ?O10 ?P10)) (and ?U9 ?Q10 ?I10 (<= ?O10 ?R10) (>= ?O10 ?R10)))))
(let (($x98528 (and ?X9 ?Y10 ?L10 (<= ?U10 ?Z9) (>= ?U10 ?Z9) (<= ?W10 ?B10) (>= ?W10 ?B10))))
(let (($x399203 (and ?J10 ?T10 (<= ?U10 ?V10) (>= ?U10 ?V10) (<= ?W10 ?X10) (>= ?W10 ?X10))))
(let (($x350170 (or (not ?R11) (and ?L11 ?S11 (<= ?T11 ?U11) (>= ?T11 ?U11)) (and ?F11 ?V11 ?N11 (<= ?T11 ?W11) (>= ?T11 ?W11)))))
(let (($x224598 (or (not ?X11) (and ?O11 ?Y11 (<= ?Z11 ?A12) (>= ?Z11 ?A12)) (and ?I11 ?B12 (not ?Q11) (<= ?Z11 ?U10) (>= ?Z11 ?U10)))))
(let (($x197009 (or (not ?R12) (and ?J6 ?S12) (and ?X5 ?T12 ?L6) (and ?L12 ?U12) (and ?F12 ?V12 (not ?N12)) (and ?X11 ?W12 (not ?H12)))))
(let (($x337484 (or (not ?R12) (and ?S12 (not ?T12) (not ?U12) (not ?V12) (not ?W12)) (and ?T12 (not ?S12) (not ?U12) (not ?V12) (not ?W12)) (and ?U12 (not ?S12) (not ?T12) (not ?V12) (not ?W12)) (and ?V12 (not ?S12) (not ?T12) (not ?U12) (not ?W12)) (and ?W12 (not ?S12) (not ?T12) (not ?U12) (not ?V12)))))
(let (($x369493 (or (not ?X12) (and ?O12 ?Y12 (<= ?Z12 ?A13) (>= ?Z12 ?A13)) (and ?I12 ?B13 ?Q12 (<= ?Z12 ?C13) (>= ?Z12 ?C13)))))
(let (($x326452 (or (not ?P13) (and ?J13 ?Q13) (and ?D13 ?R13 (not ?L13)) (and ?R12 ?S13 ?F13))))
(let (($x395980 (or (not ?P13) (and ?Q13 (not ?R13) (not ?S13)) (and ?R13 (not ?Q13) (not ?S13)) (and ?S13 (not ?Q13) (not ?R13)))))
(let (($x235072 (or (not ?Z13) (and ?T13 ?A14 (<= ?B14 ?C14) (>= ?B14 ?C14)) (and ?M13 ?D14 ?V13 (<= ?B14 ?E14) (>= ?B14 ?E14)))))
(let (($x383986 (or (not ?O14) (and ?L14 ?P14 (<= ?Q14 ?R14) (>= ?Q14 ?R14)) (and ?I14 ?S14 ?N14 (<= ?Q14 ?T14) (>= ?Q14 ?T14)))))
(let (($x290057 (or (not ?D15) (and ?A15 ?E15 (<= ?F15 ?G15) (>= ?F15 ?G15)) (and ?X14 ?H15 ?C15 (<= ?F15 ?I15) (>= ?F15 ?I15)))))
(let (($x263352 (or (not ?S15) (and ?P15 ?T15 (<= ?U15 ?V15) (>= ?U15 ?V15)) (and ?M15 ?W15 ?R15 (<= ?U15 ?X15) (>= ?U15 ?X15)))))
(let (($x154970 (or (not ?H16) (and ?E16 ?I16 (<= ?J16 ?K16) (>= ?J16 ?K16)) (and ?B16 ?L16 ?G16 (<= ?J16 ?M16) (>= ?J16 ?M16)))))
(let (($x291031 (or (not ?W16) (and ?T16 ?X16 (<= ?Y16 ?Z16) (>= ?Y16 ?Z16)) (and ?Q16 ?A17 ?V16 (<= ?Y16 ?B17) (>= ?Y16 ?B17)))))
(let (($x174625 (or (not ?L17) (and ?I17 ?M17 (<= ?N17 ?O17) (>= ?N17 ?O17)) (and ?F17 ?P17 ?K17 (<= ?N17 ?Q17) (>= ?N17 ?Q17)))))
(let (($x373935 (or ?W13 (and ?P13 ?Y13) ?Y2 ?A4 (and ?V2 (not ?O3)) ?S2 ?Q5 ?K3 ?D18 (and ?L1 (not ?X1)) (and ?Y1 (not ?R2)) (and ?B2 (not ?U2)) (and ?D2 (not ?X2)) (and ?G2 (not ?A3)) (and ?I2 (not ?D3)) (and ?L2 (not ?G18)))))
(let (($x100142 (and $x159958 (= ?T17 (= ?J23 0.0)) (= ?K17 (= ?I23 0.0)) (= ?E17 (= ?H23 0.0)) (= ?V16 (= ?G23 0.0)) (= ?P16 (= ?F23 0.0)) (= ?G16 (= ?E23 0.0)) (= ?A16 (= ?D23 0.0)) (= ?R15 (= ?C23 0.0)) (= ?L15 (= ?B23 0.0)) (= ?C15 (= ?A23 0.0)) (= ?W14 (= ?Z22 0.0)) (= ?N14 (= ?Y22 0.0)) (= ?H14 (= ?X22 0.0)) (= ?Y13 (= ?W22 0.0)) (= ?V13 (= ?V22 0.0)) (= ?U22 (+ 2198.0 ?F19)) (= ?L13 (= ?T22 0.0)) (= ?I13 (= ?S22 0.0)) (= ?F13 (not (<= ?R22 1.0))) (= ?Q22 (+ 2197.0 ?F19)) (= ?P22 (+ 2712.0 ?F19)) (= ?Q12 (= ?O22 0.0)) (= ?N12 (= ?N22 80.0)) (= ?M22 (+ 2197.0 ?F19)) (= ?H12 (= ?L22 0.0)) (= ?E12 (= ?K22 0.0)) (= ?Q11 (not (<= ?J22 5.0))) (= ?N11 (= ?I22 0.0)) (= ?E11 (= ?H22 0.0)) (= ?B11 (= ?G22 0.0)) (= ?L10 (= ?F22 0.0)) (= ?I10 (= ?E22 0.0)) (= ?W9 (not (<= ?K ?D22))) (= ?T9 (= ?C22 0.0)) (= ?A22 ?B22) (= ?H9 (not (<= ?K ?Z21))) (= ?E9 (= ?Y21 0.0)) (= ?W21 ?X21) (= ?U8 (not (<= ?K ?V21))) (= ?R8 (= ?Q21 6.0)) (= ?P8 (= ?Q21 (~ 15.0))) (= ?T21 ?U21) (= ?R21 (= ?S21 0.0)) (= ?H8 (not (<= 6.0 ?Q21))) (= ?P21 (+ 2196.0 ?F19)) (= ?E8 (not (<= ?K ?O21))) (= ?N21 (+ 1248.0 ?L21)) (= ?L21 ?M21) (= ?J21 ?K21) (= ?R7 (= ?I21 0.0)) (= ?O7 (not (<= ?K ?H21))) (= ?L7 (= ?Y20 8888.0)) (= ?J7 (= ?Y20 2583.0)) (= ?H7 (= ?Y20 1200.0)) (= ?F7 (= ?Y20 1057.0)) (= ?W6 (not (<= 8888.0 ?Y20))) (= ?R6 (not (<= 1200.0 ?Y20))) (= ?G21 (+ 1232.0 ?E21)) (= ?E21 ?F21) (= ?O6 (= ?D21 0.0)) (= ?C21 (+ 8.0 ?A21)) (= ?A21 ?B21) (= ?L6 (= ?Z20 0.0)) (= ?G6 (not (<= 2583.0 ?Y20))) (= ?X20 (+ 912.0 ?V20)) (= ?V20 ?W20) (= ?U20 (+ 2488.0 ?M18)) (= ?B6 (= ?T20 0.0)) (= ?S20 (+ 1232.0 ?Q20)) (= ?Q20 ?R20) (= ?W5 (= ?P20 0.0)) (= ?O20 (+ 2296.0 ?M18)) (= ?M20 ?N20) (= ?J5 (= ?L20 0.0)) (= ?G5 (not (<= ?K ?K20))) (= ?D5 (= ?J20 0.0)) (= ?I20 (+ 584.0 ?G20)) (= ?G20 ?H20) (= ?F20 (+ 64.0 ?D20)) (= ?D20 ?E20) (= ?C20 (+ 2112.0 ?F19)) (= ?B20 (+ 2280.0 ?M18)) (= ?O4 (= ?A20 0.0)) (= ?L4 (= ?Z19 0.0)) (= ?I4 (not (<= ?Y19 ?U19))) (= ?X19 (+ 1464.0 ?V19)) (= ?V19 ?W19) (= ?U19 (ite ?S19 64.0 8.0)) (= ?S19 (= ?T19 0.0)) (= ?F4 (= ?R19 1.0)) (= ?C4 (not (<= 0.0 ?Q19))) (= ?P19 (+ 2120.0 ?Y18)) (= ?Z3 (= ?O19 0.0)) (= ?N19 (+ 2144.0 ?M18)) (= ?W3 (= ?M19 0.0)) (= ?L19 (+ 1240.0 ?J19)) (= ?J19 ?K19) (= ?R3 (= ?I19 0.0)) (= ?H19 (+ 2136.0 ?F19)) (= ?F19 ?G19) (= ?O3 (= ?E19 0.0)) (= ?D19 (+ 1304.0 ?B19)) (= ?B19 ?C19) (= ?A19 (+ 2112.0 ?Y18)) (= ?Y18 ?Z18) (= ?X18 (+ 2216.0 ?U18)) (= ?W18 (+ 2040.0 ?U18)) (= ?U18 ?V18) (= ?J3 (= ?T18 ?C)) (= ?S18 (+ 2232.0 ?M18)) (= ?R18 (+ 120.0 ?P18)) (= ?P18 ?Q18) (= ?O18 (+ 2040.0 ?M18)) (= ?M18 ?N18) (= ?K18 ?L18) (= ?G18 (= ?I18 7.0)) (= ?D3 (= ?I18 6.0)) (= ?A3 (= ?I18 5.0)) (= ?X2 (= ?I18 4.0)) (= ?U2 (= ?I18 3.0)) (= ?R2 (= ?I18 2.0)) (= ?K2 (not (<= 7.0 ?I18))) (= ?F2 (not (<= 5.0 ?I18))) (= ?A2 (not (<= 3.0 ?I18))) (= ?X1 (and ?J18 ?F)) (= ?J18 (= ?I18 0.0)) (= ?S1 (not (<= 6.0 ?I18))) (= ?N1 (not (<= 2.0 ?I18))) (= ?I1 (not (<= 4.0 ?I18))) (= ?F1 (= ?H18 0.0)) $x373935 (or (not ?D18) (and ?E18 (not ?F18)) (and ?F18 (not ?E18))) (or (not ?D18) (and ?A18 ?E18) (and ?O9 ?F18 (not ?W9))) (or (not ?A18) (and ?B18 (not ?C18)) (and ?C18 (not ?B18))) (or (not ?A18) (and ?X17 ?B18) (and ?U17 ?C18 ?Z17)) (or (not ?X17) ?Y17) (or (not ?X17) (and ?U17 ?Y17 (not ?Z17))) (or (not ?U17) (and ?V17 (not ?W17)) (and ?W17 (not ?V17))) (or (not ?U17) (and ?R17 ?V17) (and ?L17 ?W17 ?T17)) (or (not ?R17) ?S17) (or (not ?R17) (and ?L17 ?S17 (not ?T17))) (or (not ?L17) (and ?M17 (not ?P17)) (and ?P17 (not ?M17))) $x174625 (or (not ?I17) ?J17) (or (not ?I17) (and ?F17 ?J17 (not ?K17))) (or (not ?F17) (and ?G17 (not ?H17)) (and ?H17 (not ?G17))) (or (not ?F17) (and ?C17 ?G17) (and ?W16 ?H17 ?E17)) (or (not ?C17) ?D17) (or (not ?C17) (and ?W16 ?D17 (not ?E17))) (or (not ?W16) (and ?X16 (not ?A17)) (and ?A17 (not ?X16))) $x291031 (or (not ?T16) ?U16) (or (not ?T16) (and ?Q16 ?U16 (not ?V16))) (or (not ?Q16) (and ?R16 (not ?S16)) (and ?S16 (not ?R16))) (or (not ?Q16) (and ?N16 ?R16) (and ?H16 ?S16 ?P16)) (or (not ?N16) ?O16) (or (not ?N16) (and ?H16 ?O16 (not ?P16))) (or (not ?H16) (and ?I16 (not ?L16)) (and ?L16 (not ?I16))) $x154970 (or (not ?E16) ?F16) (or (not ?E16) (and ?B16 ?F16 (not ?G16))) (or (not ?B16) (and ?C16 (not ?D16)) (and ?D16 (not ?C16))) (or (not ?B16) (and ?Y15 ?C16) (and ?S15 ?D16 ?A16)) (or (not ?Y15) ?Z15) (or (not ?Y15) (and ?S15 ?Z15 (not ?A16))) (or (not ?S15) (and ?T15 (not ?W15)) (and ?W15 (not ?T15))) $x263352 (or (not ?P15) ?Q15) (or (not ?P15) (and ?M15 ?Q15 (not ?R15))) (or (not ?M15) (and ?N15 (not ?O15)) (and ?O15 (not ?N15))) (or (not ?M15) (and ?J15 ?N15) (and ?D15 ?O15 ?L15)) (or (not ?J15) ?K15) (or (not ?J15) (and ?D15 ?K15 (not ?L15))) (or (not ?D15) (and ?E15 (not ?H15)) (and ?H15 (not ?E15))) $x290057 (or (not ?A15) ?B15) (or (not ?A15) (and ?X14 ?B15 (not ?C15))) (or (not ?X14) (and ?Y14 (not ?Z14)) (and ?Z14 (not ?Y14))) (or (not ?X14) (and ?U14 ?Y14) (and ?O14 ?Z14 ?W14)) (or (not ?U14) ?V14) (or (not ?U14) (and ?O14 ?V14 (not ?W14))) (or (not ?O14) (and ?P14 (not ?S14)) (and ?S14 (not ?P14))) $x383986 (or (not ?L14) ?M14) (or (not ?L14) (and ?I14 ?M14 (not ?N14))) (or (not ?I14) (and ?J14 (not ?K14)) (and ?K14 (not ?J14))) (or (not ?I14) (and ?F14 ?J14) (and ?Z13 ?K14 ?H14)) (or (not ?F14) ?G14) (or (not ?F14) (and ?Z13 ?G14 (not ?H14))) (or (not ?Z13) (and ?A14 (not ?D14)) (and ?D14 (not ?A14))) $x235072 (or (not ?W13) ?X13) (or (not ?W13) (and ?P13 ?X13 (not ?Y13))) (or (not ?T13) ?U13) (or (not ?T13) (and ?M13 ?U13 (not ?V13))) $x395980 $x326452 (or (not ?M13) (and ?N13 (not ?O13)) (and ?O13 (not ?N13))) (or (not ?M13) (and ?G13 ?N13) (and ?X12 ?O13 ?I13)) (or (not ?J13) ?K13) (or (not ?J13) (and ?D13 ?K13 ?L13)) (or (not ?G13) ?H13) (or (not ?G13) (and ?X12 ?H13 (not ?I13))) (or (not ?D13) ?E13) (or (not ?D13) (and ?R12 ?E13 (not ?F13))) (or (not ?X12) (and ?Y12 (not ?B13)) (and ?B13 (not ?Y12))) $x369493 $x337484 $x197009 (or (not ?O12) ?P12) (or (not ?O12) (and ?I12 ?P12 (not ?Q12))) (or (not ?L12) ?M12) (or (not ?L12) (and ?F12 ?M12 ?N12)) (or (not ?I12) (and ?J12 (not ?K12)) (and ?K12 (not ?J12))) (or (not ?I12) (and ?C12 ?J12) (and ?R11 ?K12 ?E12)) (or (not ?F12) ?G12) (or (not ?F12) (and ?X11 ?G12 ?H12)) (or (not ?C12) ?D12) (or (not ?C12) (and ?R11 ?D12 (not ?E12))) (or (not ?X11) (and ?Y11 (not ?B12)) (and ?B12 (not ?Y11))) $x224598 (or (not ?R11) (and ?S11 (not ?V11)) (and ?V11 (not ?S11))) $x350170 (or (not ?O11) ?P11) (or (not ?O11) (and ?I11 ?P11 ?Q11)) (or (not ?L11) ?M11) (or (not ?L11) (and ?F11 ?M11 (not ?N11))) (or (not ?I11) (and ?J11 (not ?K11)) (and ?K11 (not ?J11))) (or (not ?I11) (and ?C11 ?J11) (and ?S10 ?K11 ?E11)) (or (not ?F11) (and ?G11 (not ?H11)) (and ?H11 (not ?G11))) (or (not ?F11) (and ?Z10 ?G11) (and ?M10 ?H11 ?B11)) (or (not ?C11) ?D11) (or (not ?C11) (and ?S10 ?D11 (not ?E11))) (or (not ?Z10) ?A11) (or (not ?Z10) (and ?M10 ?A11 (not ?B11))) (or (not ?S10) (and ?T10 (not ?Y10)) (and ?Y10 (not ?T10))) (or (not ?S10) $x399203 $x98528) (or (not ?M10) (and ?N10 (not ?Q10)) (and ?Q10 (not ?N10))) $x318894 (or (not ?J10) ?K10) (or (not ?J10) (and ?X9 ?K10 (not ?L10))) (or (not ?G10) ?H10) (or (not ?G10) (and ?U9 ?H10 (not ?I10))) (or (not ?X9) (and ?Y9 (not ?D10)) (and ?D10 (not ?Y9))) (or (not ?X9) $x160013 $x265381) (or (not ?U9) ?V9) (or (not ?U9) (and ?O9 ?V9 ?W9)) (or (not ?R9) ?S9) (or (not ?R9) (and ?I9 ?S9 (not ?T9))) (or (not ?O9) (and ?P9 (not ?Q9)) (and ?Q9 (not ?P9))) (or (not ?O9) (and ?F9 ?P9) (and ?Z8 ?Q9 (not ?H9))) (or (not ?I9) (and ?J9 (not ?M9)) (and ?M9 (not ?J9))) $x167949 (or (not ?F9) ?G9) (or (not ?F9) (and ?Z8 ?G9 ?H9)) (or (not ?C9) ?D9) (or (not ?C9) (and ?V8 ?D9 (not ?E9))) (or (not ?Z8) (and ?A9 (not ?B9)) (and ?B9 (not ?A9))) (or (not ?Z8) (and ?S8 ?A9) (and ?K8 ?B9 (not ?U8))) $x258935 $x396311 (or (not ?S8) ?T8) (or (not ?S8) (and ?K8 ?T8 ?U8)) (or (not ?N8) (and ?O8 (not ?Q8)) (and ?Q8 (not ?O8))) $x299393 (or (not ?K8) (and ?L8 (not ?M8)) (and ?M8 (not ?L8))) (or (not ?K8) (and ?C8 ?L8) (and ?S7 ?M8 (not ?E8))) (or (not ?I8) ?J8) (or (not ?I8) (and ?V7 ?J8 (not ?H8))) (or (not ?F8) ?G8) (or (not ?F8) (and ?V7 ?G8 ?H8)) (or (not ?C8) ?D8) (or (not ?C8) (and ?S7 ?D8 ?E8)) $x100867 $x205186 (or (not ?S7) (and ?T7 (not ?U7)) (and ?U7 (not ?T7))) (or (not ?S7) (and ?M7 ?T7) (and ?Z6 ?U7 (not ?O7))) (or (not ?P7) ?Q7) (or (not ?P7) (and ?D7 ?Q7 ?R7)) (or (not ?M7) ?N7) (or (not ?M7) (and ?Z6 ?N7 ?O7)) $x205295 $x220881 $x163622 $x281806 (or (not ?X6) ?Y6) (or (not ?X6) (and ?H6 ?Y6 (not ?W6))) (or (not ?U6) ?V6) (or (not ?U6) (and ?H6 ?V6 ?W6)) (or (not ?S6) ?T6) (or (not ?S6) (and ?E6 ?T6 (not ?R6))) (or (not ?P6) ?Q6) (or (not ?P6) (and ?E6 ?Q6 ?R6)) (or (not ?M6) ?N6) (or (not ?M6) (and ?Z5 ?N6 (not ?O6))) (or (not ?J6) ?K6) (or (not ?J6) (and ?X5 ?K6 (not ?L6))) (or (not ?H6) ?I6) (or (not ?H6) (and ?U5 ?I6 (not ?G6))) (or (not ?E6) ?F6) (or (not ?E6) (and ?U5 ?F6 ?G6)) (or (not ?C6) ?D6) (or (not ?C6) (and ?N5 ?D6 (not ?B6))) (or (not ?Z5) ?A6) (or (not ?Z5) (and ?N5 ?A6 ?B6)) (or (not ?X5) ?Y5) (or (not ?X5) (and ?K5 ?Y5 (not ?W5))) (or (not ?U5) ?V5) (or (not ?U5) (and ?K5 ?V5 ?W5)) $x387721 $x230719 (or (not ?N5) (and ?O5 (not ?P5)) (and ?P5 (not ?O5))) (or (not ?N5) (and ?E5 ?O5) (and ?U4 ?P5 (not ?G5))) (or (not ?K5) (and ?L5 (not ?M5)) (and ?M5 (not ?L5))) (or (not ?K5) (and ?B5 ?L5) (and ?P4 ?M5 (not ?D5))) (or (not ?H5) ?I5) (or (not ?H5) (and ?Y4 ?I5 (not ?J5))) (or (not ?E5) ?F5) (or (not ?E5) (and ?U4 ?F5 ?G5)) (or (not ?B5) ?C5) (or (not ?B5) (and ?P4 ?C5 ?D5)) (or (not ?Y4) (and ?Z4 (not ?A5)) (and ?A5 (not ?Z4))) (or (not ?Y4) (and ?M4 ?Z4) (and ?X3 ?A5 ?O4)) $x347037 $x236576 $x279379 $x309477 (or (not ?M4) ?N4) (or (not ?M4) (and ?X3 ?N4 (not ?O4))) (or (not ?J4) ?K4) (or (not ?J4) (and ?U3 ?K4 (not ?L4))) (or (not ?G4) ?H4) (or (not ?G4) (and ?S3 ?H4 ?I4)) (or (not ?D4) ?E4) (or (not ?D4) (and ?P3 ?E4 ?F4)) (or (not ?A4) ?B4) (or (not ?A4) (and ?M3 ?B4 ?C4)) (or (not ?X3) ?Y3) (or (not ?X3) (and ?H3 ?Y3 ?Z3)) (or (not ?U3) ?V3) (or (not ?U3) (and ?E3 ?V3 ?W3)) (or (not ?S3) ?T3) (or (not ?S3) (and ?B3 ?T3 (not ?R3))) (or (not ?P3) ?Q3) (or (not ?P3) (and ?B3 ?Q3 ?R3)) (or (not ?M3) ?N3) (or (not ?M3) (and ?V2 ?N3 ?O3)) (or (not ?K3) ?L3) (or (not ?K3) (and ?P2 ?L3 (not ?J3))) (or (not ?H3) ?I3) (or (not ?H3) (and ?P2 ?I3 ?J3)) (or (not ?E3) (and ?F3 (not ?G3)) (and ?G3 (not ?F3))) (or (not ?E3) (and ?N2 ?F3) (and ?V1 ?G3 (not ?G))) (or (not ?B3) ?C3) (or (not ?B3) (and ?I2 ?C3 ?D3)) (or (not ?Y2) ?Z2) (or (not ?Y2) (and ?G2 ?Z2 ?A3)) (or (not ?V2) ?W2) (or (not ?V2) (and ?D2 ?W2 ?X2)) (or (not ?S2) ?T2) (or (not ?S2) (and ?B2 ?T2 ?U2)) (or (not ?P2) ?Q2) (or (not ?P2) (and ?Y1 ?Q2 ?R2)) (or (not ?N2) ?O2) (or (not ?N2) (and ?V1 ?O2 ?G)) (or (not ?L2) ?M2) (or (not ?L2) (and ?T1 ?M2 (not ?K2))) (or (not ?I2) ?J2) (or (not ?I2) (and ?T1 ?J2 ?K2)) (or (not ?G2) ?H2) (or (not ?G2) (and ?Q1 ?H2 (not ?F2))) (or (not ?D2) ?E2) (or (not ?D2) (and ?Q1 ?E2 ?F2)) (or (not ?B2) ?C2) (or (not ?B2) (and ?O1 ?C2 (not ?A2))) (or (not ?Y1) ?Z1) (or (not ?Y1) (and ?O1 ?Z1 ?A2)) (or (not ?V1) ?W1) (or (not ?V1) (and ?L1 ?W1 ?X1)) (or (not ?T1) ?U1) (or (not ?T1) (and ?J1 ?U1 (not ?S1))) (or (not ?Q1) ?R1) (or (not ?Q1) (and ?J1 ?R1 ?S1)) (or (not ?O1) ?P1) (or (not ?O1) (and ?G1 ?P1 (not ?N1))) (or (not ?L1) ?M1) (or (not ?L1) (and ?G1 ?M1 ?N1)) (or (not ?J1) ?K1) (or (not ?J1) (and ?C1 ?K1 (not ?I1))) (or (not ?G1) ?H1) (or (not ?G1) (and ?C1 ?H1 ?I1)) (or (not ?C1) ?E1) (or (not ?C1) (and ?D1 ?E1 (not ?F1))) (= ?Z17 (= ?K23 0.0)))))
(=> $x100142 $x159958))))))))))))))))))))))))))))))))))))))))
)
(assert (forall ((?A Real) (?B Real) (?C Real) (?D Real) (?E Real) (?F Bool) (?G Bool) (?H Real) (?I Real) (?J Real) (?K Real) (?L Real) (?M Real) (?N Real) (?O Real) (?P Real) (?Q Real) (?R Real) (?S Real) (?T Real) (?U Real) (?V Real) (?W Real) (?X Real) (?Y Real) (?Z Real) (?A1 Real) (?B1 Real) (?C1 Real) (?D1 Real) (?E1 Bool) (?F1 Bool) (?G1 Bool) (?H1 Bool) (?I1 Bool) (?J1 Bool) (?K1 Bool) (?L1 Bool) (?M1 Bool) (?N1 Bool) (?O1 Bool) (?P1 Bool) (?Q1 Bool) (?R1 Real) (?S1 Real) (?T1 Real) (?U1 Real) (?V1 Real) (?W1 Real) )(let (($x155345 (|cp-rel-bb| ?A ?B ?C ?D ?E ?F ?G ?H ?I ?J ?K ?L ?M ?N ?O ?P ?Q ?R ?S ?T ?U ?V ?W ?X ?Y ?Z ?A1 ?B1)))
(let (($x306654 (not ?E1)))
(let (($x299872 (or $x306654 ?G1)))
(let (($x136474 (|cp-rel-bb.i.i| ?A ?B ?C ?D ?E ?F ?G ?H ?I ?J ?K ?L ?M ?N ?O ?P ?Q ?R ?S ?T ?U ?V ?W ?X ?Y ?Z ?A1 ?B1 ?C1 ?D1)))
(let (($x315640 (and $x136474 (= ?V1 (+ 2196.0 ?T1)) (= ?T1 ?U1) (= ?N1 (= ?S1 0.0)) (= ?H1 (= ?R1 0.0)) (or ?O1 (and ?K1 (not ?Q1))) (or (not ?O1) ?P1) (or (not ?O1) (and ?K1 ?P1 ?Q1)) (or (not ?K1) (and ?L1 (not ?M1)) (and ?M1 (not ?L1))) (or (not ?K1) (and ?I1 ?L1) (and ?E1 ?M1 ?N1)) (or (not ?I1) ?J1) (or (not ?I1) (and ?F1 ?J1 (not ?H1))) $x299872 (or $x306654 (and ?F1 ?G1 ?H1)) (= ?Q1 (= ?W1 4.0)))))
(=> $x315640 $x155345)))))))
)
(assert (forall ((?A Real) (?B Real) (?C Real) (?D Real) (?E Real) (?F Bool) (?G Bool) (?H Real) (?I Real) (?J Real) (?K Real) (?L Real) (?M Real) (?N Real) (?O Real) (?P Real) (?Q Real) (?R Real) (?S Real) (?T Real) (?U Real) (?V Real) (?W Real) (?X Real) (?Y Real) (?Z Real) (?A1 Real) (?B1 Real) (?C1 Bool) (?D1 Bool) (?E1 Real) )(let (($x447859 (|cp-rel-__UFO__0| ?A ?B ?C ?D ?E ?F ?G ?H ?I ?J ?K ?L ?M ?N ?O ?P ?Q ?R ?S ?T ?U ?V ?W ?X ?Y ?Z ?A1 ?B1)))
(let (($x128066 (= ?D1 true)))
(let (($x379278 (|cp-rel-bb| ?A ?B ?C ?D ?E ?F ?G ?H ?I ?J ?K ?L ?M ?N ?O ?P ?Q ?R ?S ?T ?U ?V ?W ?X ?Y ?Z ?A1 ?B1)))
(=> (and $x379278 $x128066 (= ?C1 true) (= ?D1 (= ?E1 0.0))) $x447859)))))
)
(assert (forall ((?A Real) (?B Real) (?C Real) (?D Real) (?E Real) (?F Bool) (?G Bool) (?H Real) (?I Real) (?J Real) (?K Real) (?L Real) (?M Real) (?N Real) (?O Real) (?P Real) (?Q Real) (?R Real) (?S Real) (?T Real) (?U Real) (?V Real) (?W Real) (?X Real) (?Y Real) (?Z Real) (?A1 Real) (?B1 Real) (?C1 Bool) )(let (($x283361 (|cp-rel-__UFO__0| ?A ?B ?C ?D ?E ?F ?G ?H ?I ?J ?K ?L ?M ?N ?O ?P ?Q ?R ?S ?T ?U ?V ?W ?X ?Y ?Z ?A1 ?B1)))
(=> (and $x283361 (= ?C1 true)) $x283361)))
)
(assert (forall ((?A Real) (?B Real) (?C Real) (?D Real) (?E Real) (?F Bool) (?G Bool) (?H Real) (?I Real) (?J Real) (?K Real) (?L Real) (?M Real) (?N Real) (?O Real) (?P Real) (?Q Real) (?R Real) (?S Real) (?T Real) (?U Real) (?V Real) (?W Real) (?X Real) (?Y Real) (?Z Real) (?A1 Real) (?B1 Real) (?C1 Bool) (?D1 Bool) (?E1 Bool) (?F1 Bool) (?G1 Bool) (?H1 Bool) (?I1 Bool) (?J1 Bool) (?K1 Bool) (?L1 Bool) (?M1 Bool) (?N1 Bool) (?O1 Bool) (?P1 Bool) (?Q1 Real) (?R1 Real) (?S1 Real) (?T1 Bool) (?U1 Bool) )(let (($x212232 (|cp-rel-bb.i.i| ?A ?B ?C ?D ?E ?F ?G ?H ?I ?J ?K ?L ?M ?N ?O ?P ?Q ?R ?S ?T ?U ?V ?W ?X ?Y ?Z ?A1 ?B1 ?R1 ?S1)))
(let (($x306654 (not ?C1)))
(let (($x299872 (or $x306654 ?E1)))
(let (($x439281 (not ?N1)))
(let (($x355472 (or $x439281 ?O1)))
(let (($x128066 (= ?T1 true)))
(let (($x278886 (|cp-rel-bb| ?A ?B ?C ?D ?E ?F ?G ?H ?I ?J ?K ?L ?M ?N ?O ?P ?Q ?R ?S ?T ?U ?V ?W ?X ?Y ?Z ?A1 ?B1)))
(let (($x298898 (and $x278886 (= ?M1 (not (<= 7.0 ?R1))) (= ?J1 (not (<= 6.0 ?R1))) (= ?G1 (not (<= 4.0 ?R1))) (= ?F1 (= ?Q1 0.0)) $x128066 (or (not ?T1) ?U1) (or (not ?T1) (and ?N1 ?U1 ?P1)) $x355472 (or $x439281 (and ?K1 ?O1 (not ?M1))) (or (not ?K1) ?L1) (or (not ?K1) (and ?H1 ?L1 (not ?J1))) (or (not ?H1) ?I1) (or (not ?H1) (and ?C1 ?I1 (not ?G1))) $x299872 (or $x306654 (and ?D1 ?E1 (not ?F1))) (= ?P1 (= ?R1 7.0)))))
(=> $x298898 $x212232))))))))))
)
(assert (forall ((?A Real) (?B Real) (?C Real) (?D Real) (?E Real) (?F Bool) (?G Bool) (?H Real) (?I Real) (?J Real) (?K Real) (?L Real) (?M Real) (?N Real) (?O Real) (?P Real) (?Q Real) (?R Real) (?S Real) (?T Real) (?U Real) (?V Real) (?W Real) (?X Real) (?Y Real) (?Z Real) (?A1 Real) (?B1 Real) (?C1 Real) (?D1 Real) (?E1 Bool) (?F1 Bool) (?G1 Bool) (?H1 Bool) (?I1 Bool) (?J1 Real) (?K1 Real) (?L1 Real) )(let (($x108690 (|cp-rel-bb.i.i| ?A ?B ?C ?D ?E ?F ?G ?H ?I ?J ?K ?L ?M ?N ?O ?P ?Q ?R ?S ?T ?U ?V ?W ?X ?Y ?Z ?A1 ?B1 ?C1 ?L1)))
(let (($x336789 (|cp-rel-bb.i.i| ?A ?B ?C ?D ?E ?F ?G ?H ?I ?J ?K ?L ?M ?N ?O ?P ?Q ?R ?S ?T ?U ?V ?W ?X ?Y ?Z ?A1 ?B1 ?C1 ?D1)))
(let (($x121328 (and $x336789 (= ?H1 (= ?J1 0.0)) (not (= ?I1 true)) (= ?E1 true) (or (not ?E1) ?G1) (or (not ?E1) (and ?F1 ?G1 ?H1)) (= ?I1 (= ?K1 0.0)))))
(=> $x121328 $x108690)))))
)
(assert (forall ((?A Real) (?B Real) (?C Real) (?D Real) (?E Real) (?F Bool) (?G Bool) (?H Real) (?I Real) (?J Real) (?K Real) (?L Real) (?M Real) (?N Real) (?O Real) (?P Real) (?Q Real) (?R Real) (?S Real) (?T Real) (?U Real) (?V Real) (?W Real) (?X Real) (?Y Real) (?Z Real) (?A1 Real) (?B1 Real) (?C1 Bool) (?D1 Bool) (?E1 Bool) (?F1 Bool) (?G1 Bool) (?H1 Bool) (?I1 Bool) (?J1 Bool) (?K1 Bool) (?L1 Bool) (?M1 Bool) (?N1 Bool) (?O1 Bool) (?P1 Bool) (?Q1 Bool) (?R1 Bool) (?S1 Bool) (?T1 Bool) (?U1 Bool) (?V1 Bool) (?W1 Real) (?X1 Real) (?Y1 Real) (?Z1 Real) (?A2 Real) (?B2 Real) (?C2 Real) (?D2 Real) (?E2 Real) (?F2 Real) (?G2 Real) (?H2 Bool) (?I2 Bool) (?J2 Bool) (?K2 Bool) (?L2 Bool) (?M2 Bool) (?N2 Bool) (?O2 Real) (?P2 Real) (?Q2 Real) )(let (($x439281 (not ?J2)))
(let (($x355472 (or $x439281 ?K2)))
(let (($x243327 (or (and ?J2 (<= ?O2 42.0) (>= ?O2 42.0)) (and ?M2 (<= ?O2 42.0) (>= ?O2 42.0)))))
(let (($x268567 (|cp-rel-bb| ?A ?B ?C ?D ?E ?F ?G ?H ?I ?J ?K ?L ?M ?N ?O ?P ?Q ?R ?S ?T ?U ?V ?W ?X ?Y ?Z ?A1 ?B1)))
(let (($x327808 (and $x268567 (= ?P2 (+ 2144.0 ?Y1)) (= ?V1 (not (<= 0.0 ?G2))) (= ?F2 (+ 2120.0 ?Y1)) (= ?U1 (= ?E2 0.0)) (= ?D2 (+ 1304.0 ?B2)) (= ?B2 ?C2) (= ?A2 (+ 2112.0 ?Y1)) (= ?Y1 ?Z1) (= ?R1 (= ?X1 4.0)) (= ?O1 (not (<= 5.0 ?X1))) (= ?L1 (not (<= 6.0 ?X1))) (= ?G1 (not (<= 4.0 ?X1))) (= ?F1 (= ?W1 0.0)) $x243327 (or (not ?M2) ?N2) (or (not ?M2) (and ?H2 ?N2 (not ?L2))) $x355472 (or $x439281 (and ?H2 ?K2 ?L2)) (or (not ?H2) ?I2) (or (not ?H2) (and ?S1 ?I2 (not ?V1))) (or (not ?S1) ?T1) (or (not ?S1) (and ?P1 ?T1 ?U1)) (or (not ?P1) ?Q1) (or (not ?P1) (and ?M1 ?Q1 ?R1)) (or (not ?M1) ?N1) (or (not ?M1) (and ?J1 ?N1 ?O1)) (or (not ?J1) ?K1) (or (not ?J1) (and ?H1 ?K1 ?L1)) (or (not ?H1) ?I1) (or (not ?H1) (and ?C1 ?I1 (not ?G1))) (or (not ?C1) ?E1) (or (not ?C1) (and ?D1 ?E1 (not ?F1))) (= ?L2 (= ?Q2 0.0)))))
(=> $x327808 |cp-rel-UnifiedReturnBlock|)))))))
)
(assert (not cp-rel-UnifiedReturnBlock))
(check-sat)
